100 1612,8984 682,946275 48,0531
200 33296,115 12811,569974999999 3442,1482
300 45693,9462 20508,36205 35,2827
400 6638,2494 3218,72815 699,6377
500 34580,5817 21399,8535 8413,8634
600 1584,1355 646,833875 41,0412
700 12534,1433 7443,94635 3215,9368
800 35063,7772 16106,893049999999 38,3311
900 5284,9736 2914,27655 721,8732
1000 36171,2604 21458,169575 8620,294
